
Gurobi 13.0.0 (linux64) logging started Sun Jan 18 02:32:37 2026

Set parameter LogFile to value "../experiments/network-n_60_s_1_rp_0-app_set-id_42_19_apps/submip_40_epr1_model_gurobi.log"
Set parameter TimeLimit to value 8.2428210168299847e+02
Gurobi Optimizer version 13.0.0 build v13.0.0rc1 (linux64 - "Ubuntu 24.04.3 LTS")

CPU model: Intel(R) Core(TM) Ultra 7 165H, instruction set [SSE2|AVX|AVX2]
Thread count: 22 physical cores, 22 logical processors, using up to 22 threads

Non-default parameters:
TimeLimit  8.2428210168299847e+02
LogToConsole  0

Academic license 2539022 - for non-commercial use only - registered to al___@studenti.unimi.it
Optimize a model with 55552 rows, 7440 columns and 121544 nonzeros (Min)
Model fingerprint: 0xb4d45752
Model has 7440 linear objective coefficients
Model has 206 quadratic constraints
Variable types: 0 continuous, 7440 integer (7440 binary)
Coefficient statistics:
  Matrix range     [1e+00, 9e+02]
  QMatrix range    [5e+01, 2e+02]
  Objective range  [1e+01, 2e+02]
  Bounds range     [1e+00, 1e+00]
  RHS range        [1e+00, 1e+09]
  QRHS range       [1e+02, 6e+02]

MIP start from previous solve did not produce a new incumbent solution
MIP start from previous solve violates constraint fixed_app_8_microservice_1 by 1.000000000

Presolve removed 54990 rows and 6080 columns
Presolve time: 0.06s
Presolved: 6657 rows, 7256 columns, 45499 nonzeros
Variable types: 0 continuous, 7256 integer (7256 binary)
Performing another presolve...
Presolve removed 1392 rows and 1700 columns
Presolve time: 0.26s

Root relaxation: objective 4.691303e+03, 1254 iterations, 0.08 seconds (0.10 work units)

    Nodes    |    Current Node    |     Objective Bounds      |     Work
 Expl Unexpl |  Obj  Depth IntInf | Incumbent    BestBd   Gap | It/Node Time

     0     0 4691.30312    0  151          - 4691.30312      -     -    0s
     0     0 4849.23794    0  172          - 4849.23794      -     -    1s
     0     0 4889.20572    0  177          - 4889.20572      -     -    1s
     0     0 4894.39064    0  195          - 4894.39064      -     -    1s
     0     0 4895.55537    0  181          - 4895.55537      -     -    1s
     0     0 5019.44270    0  182          - 5019.44270      -     -    1s
     0     0 5067.82741    0  175          - 5067.82741      -     -    1s
     0     0 5069.39409    0  180          - 5069.39409      -     -    1s
     0     0 5145.43235    0  188          - 5145.43235      -     -    2s
     0     0 5173.42567    0  167          - 5173.42567      -     -    2s
     0     0 5174.29638    0  209          - 5174.29638      -     -    2s
     0     0 5206.61633    0  193          - 5206.61633      -     -    2s
     0     0 5206.93338    0  185          - 5206.93338      -     -    2s
     0     0 5206.93338    0  175          - 5206.93338      -     -    2s
     0     2 5206.95347    0  173          - 5206.95347      -     -    3s
H  293   245                    5446.0000000 5308.04013  2.53%  86.4    4s
H  325   245                    5360.0000000 5308.04013  0.97%  82.3    4s
*  638    50              18    5356.0000000 5341.82780  0.26%  51.3    4s

Cutting planes:
  Gomory: 5
  Lift-and-project: 9
  Cover: 93
  Implied bound: 1
  Clique: 59
  MIR: 76
  Knapsack: 13
  StrongCG: 41
  GUB cover: 11
  Zero half: 26
  RLT: 185
  Relax-and-lift: 70
  BQP: 67

Explored 711 nodes (38764 simplex iterations) in 4.77 seconds (3.33 work units)
Thread count was 22 (of 22 available processors)

Solution count 3: 5356 5360 5446 

Optimal solution found (tolerance 1.00e-04)
Best objective 5.356000000000e+03, best bound 5.356000000000e+03, gap 0.0000%

User-callback calls 2491, time in user-callback 0.01 sec
